toybox/dimacs_unique/toybox-2017-05-08_22-09-08.dimacs
c 1 CONFIG_HELP
c 2 CONFIG_SORT_BIG
c 3 CONFIG_DHCPD
c 4 CONFIG_START
c 5 CONFIG_SYSLOGD
c 6 CONFIG_TCPSVD
c 7 CONFIG_TAIL
c 8 CONFIG_ID_Z
c 9 CONFIG_TOYBOX_PRLIMIT
c 10 CONFIG_UNSHARE
c 11 CONFIG_EGREP
c 12 CONFIG_ID
c 13 CONFIG_TOP_COMMON
c 14 CONFIG_RESTORECON
c 15 CONFIG_HELP_EXTRAS
c 16 CONFIG_BOOTCHARTD
c 17 CONFIG_KILL
c 18 CONFIG_TOYBOX_ICONV
c 19 CONFIG_LOG
c 20 CONFIG_GZIP
c 21 CONFIG_MKE2FS_EXTENDED
c 22 CONFIG_TOYBOX_FIFREEZE
c 23 CONFIG_CP_PRESERVE
c 24 CONFIG_LS_COLOR
c 25 CONFIG_TOYBOX_MUSL_NOMMU_IS_BROKEN
c 26 CONFIG_MKE2FS_GEN
c 27 CONFIG_PGREP
c 28 CONFIG_TOP
c 29 CONFIG_TOYBOX_SHADOW
c 30 CONFIG_SHA256SUM
c 31 CONFIG_LSPCI
c 32 CONFIG_MKFIFO_Z
c 33 CONFIG_TOYBOX_FORK
c 34 CONFIG_GUNZIP
c 35 CONFIG_SHA224SUM
c 36 CONFIG_TOYBOX_CONTAINER
c 37 CONFIG_TOYBOX_UID_USR
c 38 CONFIG_NETCAT_LISTEN
c 39 CONFIG_MKE2FS_LABEL
c 40 CONFIG_NSENTER
c 41 CONFIG_SEQ
c 42 CONFIG_SORT_FLOAT
c 43 CONFIG_SORT
c 44 CONFIG_SU
c 45 CONFIG_CD
c 46 CONFIG_TIMEOUT
c 47 CONFIG_TOYBOX_ANDROID_SCHEDPOLICY
c 48 CONFIG_LOGGER
c 49 CONFIG_PASSWD_SAD
c 50 CONFIG_SETPROP
c 51 CONFIG_GETPROP
c 52 CONFIG_UPTIME
c 53 CONFIG_CRONTAB
c 54 CONFIG_MKDIR
c 55 CONFIG_TOYBOX
c 56 CONFIG_IOTOP
c 57 CONFIG_TOYBOX_UTMPX
c 58 CONFIG_SLEEP
c 59 CONFIG_PGKILL_COMMON
c 60 CONFIG_TOYBOX_FALLOCATE
c 61 CONFIG_KILLALL5
c 62 CONFIG_MDEV
c 63 CONFIG_TOYBOX_HELP_DASHDASH
c 64 __Root__
c 65 CONFIG_LS
c 66 CONFIG_CHCON
c 67 CONFIG_TOYBOX_LIBCRYPTO
c 68 CONFIG_W
c 69 CONFIG_TIME
c 70 CONFIG_KLOGD_SOURCE_RING_BUFFER
c 71 CONFIG_SULOGIN
c 72 CONFIG_FGREP
c 73 CONFIG_SENDEVENT
c 74 CONFIG_MDEV_CONF
c 75 CONFIG_NBD_CLIENT
c 76 CONFIG_LOAD_POLICY
c 77 CONFIG_MKDIR_Z
c 78 CONFIG_SLEEP_FLOAT
c 79 CONFIG_TOYBOX_UID_SYS
c 80 CONFIG_SETENFORCE
c 81 CONFIG_LOGIN
c 82 CONFIG_FSFREEZE
c 83 CONFIG_ULIMIT
c 84 CONFIG_XARGS_PEDANTIC
c 85 CONFIG_GREP
c 86 CONFIG_MKNOD_Z
c 87 CONFIG_WHO
c 88 CONFIG_PKILL
c 89 CONFIG_CP
c 90 CONFIG_TAIL_SEEK
c 91 CONFIG_LSPCI_TEXT
c 92 CONFIG_RUNCON
c 93 CONFIG_XARGS
c 94 CONFIG_TOYBOX_LSM_NONE
c 95 CONFIG_CAT
c 96 CONFIG_TOYBOX_SELINUX
c 97 CONFIG_KLOGD
c 98 CONFIG_OPENVT
c 99 CONFIG_MKE2FS
c 100 CONFIG_ICONV
c 101 CONFIG_GETENFORCE
c 102 CONFIG_TOYBOX_HELP
c 103 CONFIG_TOYBOX_FLOAT
c 104 CONFIG_MKNOD
c 105 CONFIG_PASSWD
c 106 CONFIG_FALLOCATE
c 107 CONFIG_TOYBOX_LIBZ
c 108 CONFIG_MKPASSWD
c 109 CONFIG_ZCAT
c 110 CONFIG_EXIT
c 111 CONFIG_NETCAT
c 112 CONFIG_SHA384SUM
c 113 CONFIG_MKFIFO
c 114 CONFIG_TOYBOX_ON_ANDROID
c 115 CONFIG_TOYBOX_SMACK
c 116 CONFIG_MKE2FS_JOURNAL
c 117 CONFIG_SHA512SUM
c 118 CONFIG_CAT_V
c 119 CONFIG_DEBUG_DHCP
c 120 CONFIG_STOP
p cnf 120 234
64 0
-8 64 0
-12 64 0
64 -82 0
-22 64 0
-60 64 0
64 -106 0
64 -102 0
-1 64 0
64 -105 0
-49 64 0
64 -96 0
64 -94 0
64 -80 0
-29 64 0
64 -114 0
-19 64 0
-51 64 0
-4 64 0
64 -68 0
-57 64 0
64 -72 0
64 -85 0
-32 64 0
64 -103 0
-2 64 0
-42 64 0
-17 64 0
-61 64 0
64 -113 0
-43 64 0
-20 64 0
64 -107 0
64 -65 0
-24 64 0
-33 64 0
-25 64 0
-21 64 0
64 -99 0
64 -73 0
-9 64 0
64 -83 0
-27 64 0
-59 64 0
64 -93 0
64 -84 0
64 -110 0
-11 64 0
-18 64 0
-40 64 0
-36 64 0
-13 64 0
-28 64 0
-45 64 0
-37 64 0
-55 64 0
-15 64 0
64 -98 0
-14 64 0
64 -91 0
-31 64 0
64 -86 0
64 -104 0
-26 64 0
-30 64 0
64 -67 0
64 -116 0
64 -97 0
64 -70 0
-41 64 0
-3 64 0
64 -119 0
64 -89 0
-23 64 0
64 -75 0
-35 64 0
-54 64 0
64 -77 0
64 -79 0
-50 64 0
64 -100 0
64 -78 0
64 -115 0
-7 64 0
64 -90 0
64 -92 0
-48 64 0
-5 64 0
-46 64 0
64 -66 0
-63 64 0
64 -108 0
64 -101 0
64 -118 0
64 -95 0
-47 64 0
-39 64 0
-34 64 0
-56 64 0
-10 64 0
64 -71 0
64 -112 0
-53 64 0
-6 64 0
-58 64 0
64 -74 0
-62 64 0
64 -109 0
64 -120 0
64 -88 0
64 -76 0
-52 64 0
64 -87 0
64 -69 0
64 -81 0
64 -117 0
64 -111 0
-38 64 0
-44 64 0
-16 64 0
-8 12 0
22 -82 0
60 -106 0
-1 102 0
-49 105 0
-94 -96 0
-80 96 0
29 0
-19 114 0
-51 96 114 0
-4 114 0
57 -68 0
-72 85 0
-32 -94 0
22 0
-2 42 -103 0
17 -61 0
32 94 -113 0
-2 43 0
-20 107 0
-24 65 0
-25 -33 0
2 -42 0
-21 99 0
-73 114 0
9 -83 0
-27 59 0
-84 93 0
-110 0
11 -85 0
18 0
-8 -94 0
36 -40 0
13 -28 0
-45 0
8 -12 94 0
37 0
1 -15 55 0
33 -98 0
59 0
-114 0
-14 96 0
31 -91 0
86 94 -104 0
-26 99 0
-30 67 0
99 -116 0
-70 97 0
-41 103 0
3 -119 0
-23 89 0
29 -105 0
33 -75 0
-15 55 0
-35 67 0
54 -77 0
79 0
-50 114 0
18 -100 0
-78 103 0
-94 -115 0
7 -90 0
-92 96 0
94 96 115 0
5 -48 0
-46 103 0
-66 96 0
-63 102 0
-108 -114 0
96 -101 0
95 -118 0
-47 0
-32 113 0
-86 104 0
13 0
-39 99 0
-34 107 0
-36 0
-54 77 94 0
25 33 0
13 -56 0
-10 36 0
29 -71 0
-77 -94 0
-96 -115 0
67 -112 0
33 -53 0
72 -85 0
-9 0
-6 33 0
-58 78 -103 0
62 -74 0
-42 103 0
-11 85 0
107 -109 0
-86 -94 0
57 0
114 -120 0
59 -88 0
-76 96 0
55 0
60 0
1 -15 0
-52 57 0
57 -87 0
-69 103 0
-51 96 0
29 -81 0
67 -117 0
58 -78 0
-51 114 0
-38 111 0
29 -44 0
-16 33 0
